
Gurobi 10.0.3 (win64, Python) logging started Thu Feb  1 20:50:56 2024

Set parameter Username
Set parameter LogFile to value "gurobi.log"
Academic license - for non-commercial use only - expires 2024-09-16
Read LP format model from file few2.lp
Reading time = 0.03 seconds
: 2832 rows, 816 columns, 11040 nonzeros
Gurobi Optimizer version 10.0.3 build v10.0.3rc0 (win64)

CPU model: Intel(R) Core(TM) i7-8565U CPU @ 1.80GHz, instruction set [SSE2|AVX|AVX2]
Thread count: 4 physical cores, 8 logical processors, using up to 8 threads

Optimize a model with 2832 rows, 816 columns and 11040 nonzeros
Model fingerprint: 0x84f6043b
Variable types: 0 continuous, 816 integer (816 binary)
Coefficient statistics:
  Matrix range     [1e+00, 8e+00]
  Objective range  [2e+00, 3e+00]
  Bounds range     [1e+00, 1e+00]
  RHS range        [1e+00, 7e+00]
Presolve removed 951 rows and 221 columns
Presolve time: 0.10s
Presolved: 1881 rows, 595 columns, 6799 nonzeros
Variable types: 0 continuous, 595 integer (595 binary)

Root relaxation: objective 1.783163e+01, 520 iterations, 0.02 seconds (0.01 work units)

    Nodes    |    Current Node    |     Objective Bounds      |     Work
 Expl Unexpl |  Obj  Depth IntInf | Incumbent    BestBd   Gap | It/Node Time

     0     0   17.83163    0  236          -   17.83163      -     -    0s
H    0     0                      42.0000000   17.83163  57.5%     -    0s
H    0     0                      41.0000000   17.83163  56.5%     -    0s
H    0     0                      38.0000000   17.85714  53.0%     -    0s
     0     0   18.46000    0  214   38.00000   18.46000  51.4%     -    0s
     0     0   18.46199    0  245   38.00000   18.46199  51.4%     -    0s
     0     0   18.93816    0  311   38.00000   18.93816  50.2%     -    0s
     0     0   18.95755    0  256   38.00000   18.95755  50.1%     -    0s
     0     0   18.96028    0  275   38.00000   18.96028  50.1%     -    0s
     0     0   18.96043    0  275   38.00000   18.96043  50.1%     -    0s
     0     0   19.14430    0  241   38.00000   19.14430  49.6%     -    0s
     0     0   19.16172    0  197   38.00000   19.16172  49.6%     -    0s
     0     0   19.16306    0  230   38.00000   19.16306  49.6%     -    0s
     0     0   19.16308    0  230   38.00000   19.16308  49.6%     -    0s
     0     0   19.22617    0  193   38.00000   19.22617  49.4%     -    0s
H    0     0                      36.0000000   19.24622  46.5%     -    0s
     0     0   19.24622    0  215   36.00000   19.24622  46.5%     -    0s
     0     0   19.24931    0  229   36.00000   19.24931  46.5%     -    0s
     0     0   19.24972    0  229   36.00000   19.24972  46.5%     -    0s
     0     0   19.24972    0  229   36.00000   19.24972  46.5%     -    0s
     0     0   19.27879    0  209   36.00000   19.27879  46.4%     -    0s
H    0     0                      31.0000000   19.27879  37.8%     -    0s
     0     0   19.27991    0  211   31.00000   19.27991  37.8%     -    0s
     0     0   19.28057    0  247   31.00000   19.28057  37.8%     -    0s
     0     0   19.28140    0  211   31.00000   19.28140  37.8%     -    0s
     0     0   19.28140    0  211   31.00000   19.28140  37.8%     -    0s
     0     0   19.32000    0  244   31.00000   19.32000  37.7%     -    0s
     0     0   19.33276    0  313   31.00000   19.33276  37.6%     -    0s
     0     0   19.33364    0  314   31.00000   19.33364  37.6%     -    0s
     0     0   19.41816    0  302   31.00000   19.41816  37.4%     -    0s
     0     0   19.46027    0  292   31.00000   19.46027  37.2%     -    0s
     0     0   19.46429    0  302   31.00000   19.46429  37.2%     -    0s
     0     0   19.50000    0  339   31.00000   19.50000  37.1%     -    0s
     0     0   19.74286    0  367   31.00000   19.74286  36.3%     -    0s
     0     0   19.78571    0  292   31.00000   19.78571  36.2%     -    0s
     0     0   19.85714    0  290   31.00000   19.85714  35.9%     -    0s
     0     0   19.96429    0  315   31.00000   19.96429  35.6%     -    0s
     0     0   19.96429    0  315   31.00000   19.96429  35.6%     -    1s
     0     2   19.96429    0  315   31.00000   19.96429  35.6%     -    1s
*   62    64              14      28.0000000   20.06573  28.3%   118    1s
*  183   117              16      27.0000000   20.76119  23.1%  98.5    1s
*  214   125              14      26.0000000   20.76119  20.1%  95.4    1s
*  870   119              17      25.0000000   23.00568  7.98%  82.0    2s

Cutting planes:
  Gomory: 3
  Cover: 19
  Implied bound: 7
  Clique: 4
  MIR: 37
  StrongCG: 7
  Zero half: 80
  RLT: 77
  BQP: 1

Explored 1032 nodes (81676 simplex iterations) in 2.46 seconds (1.34 work units)
Thread count was 8 (of 8 available processors)

Solution count 9: 25 26 27 ... 42

Optimal solution found (tolerance 1.00e-04)
Best objective 2.500000000000e+01, best bound 2.500000000000e+01, gap 0.0000%
